p tw 148 160
1 2
2 61
3 14
4 5
5 6
6 7
7 8
8 9
9 10
10 11
11 12
12 13
13 15
14 25
15 16
16 17
17 18
18 19
19 20
19 35
20 21
21 22
22 23
23 24
24 26
25 36
26 27
27 28
28 29
29 30
30 31
31 32
32 33
33 34
34 11
35 37
36 47
37 38
38 39
39 40
39 42
40 41
41 48
42 43
43 44
44 45
45 46
46 48
47 56
48 49
49 50
50 51
51 52
52 53
53 54
54 55
56 57
57 58
58 59
59 60
60 62
60 63
61 72
62 54
63 64
64 65
65 66
66 67
67 68
68 69
68 92
69 70
70 71
71 73
72 83
73 74
74 75
75 76
76 77
77 78
78 79
79 80
80 81
81 82
82 84
83 94
84 85
84 61
85 86
86 87
86 61
87 88
88 89
88 61
89 90
90 91
90 102
91 61
92 93
93 95
94 105
95 96
96 97
97 98
98 99
99 100
100 101
101 3
102 103
103 104
104 106
105 116
106 107
107 108
108 109
109 110
110 111
110 61
111 112
112 113
113 114
114 115
115 117
116 127
117 118
118 119
119 120
120 121
121 122
121 61
122 123
123 124
124 125
125 126
126 128
127 138
128 129
129 130
130 131
130 61
131 132
132 133
133 134
134 135
135 136
136 137
137 139
138 3
139 140
140 141
141 142
142 143
143 144
144 145
145 146
145 61
146 147
147 148
147 6
148 4
